decision_x1=[0,2];
decision_x2=[0,2];
decision_x3=[0,2];
decision_x4=[0,2];
decision_x5=[0,2];
decision_x6=[0,2];
decision_x7=[0,2];
decision_x8=[0,2];
decision_x9=[0,2];
decision_x10=[0,2];
decision_x11=[0,2];
decision_x12=[0,2];
decision_x13=[0,2];
decision_x14=[0,2];
decision_x15=[0,2];
random_y1=[0,2];
random_y2=[0,2];
random_y3=[0,2];
constraint_x2_x1=[
0,1,7.5|
0,2,9.7|
1,0,3.7|
1,2,3.7|
2,0,1.4|
2,1,2.9|
];
constraint_x3_x1=[
0,1,2|
0,2,4.3|
1,0,4.2|
1,2,3.3|
2,0,6|
2,1,7.6|
];
constraint_x4_x2=[
0,1,1.4|
0,2,3.1|
1,0,9.9|
1,2,5.4|
2,0,1.7|
2,1,1.6|
];
constraint_x4_x3=[
0,1,7.4|
0,2,3|
1,0,9.2|
1,2,8.2|
2,0,9.6|
2,1,8.5|
];
constraint_x5_x3=[
0,1,3.2|
0,2,2|
1,0,3.7|
1,2,5.5|
2,0,1.9|
2,1,7.6|
];
constraint_x5_x4=[
0,1,1.3|
0,2,7.6|
1,0,8.8|
1,2,3.5|
2,0,7.7|
2,1,4.9|
];
constraint_x6_x1=[
0,1,7.1|
0,2,7|
1,0,5.1|
1,2,0.4|
2,0,3.7|
2,1,1.1|
];
constraint_x6_x5=[
0,1,8.4|
0,2,7.9|
1,0,0.56|
1,2,1.1|
2,0,1.3|
2,1,4.9|
];
constraint_x7_x1=[
0,1,2.6|
0,2,1.1|
1,0,8.7|
1,2,6.4|
2,0,0.12|
2,1,4.2|
];
constraint_x7_x5=[
0,1,7.5|
0,2,9|
1,0,6.3|
1,2,2.7|
2,0,0.58|
2,1,0.68|
];
constraint_x8_x4=[
0,1,7|
0,2,1.6|
1,0,6.5|
1,2,3.7|
2,0,4.9|
2,1,3.7|
];
constraint_x8_x6=[
0,1,9.2|
0,2,3.3|
1,0,0.97|
1,2,1.9|
2,0,6.1|
2,1,4.6|
];
constraint_x8_x7=[
0,1,1.4|
0,2,1.4|
1,0,6|
1,2,7.9|
2,0,1.3|
2,1,4.7|
];
constraint_x9_x2=[
0,1,5.5|
0,2,8.9|
1,0,7.8|
1,2,0.36|
2,0,5.7|
2,1,9|
];
constraint_x9_x3=[
0,1,3.8|
0,2,3.9|
1,0,3.2|
1,2,6.7|
2,0,4|
2,1,5.5|
];
constraint_x9_x6=[
0,1,9.5|
0,2,3.9|
1,0,8.9|
1,2,6.7|
2,0,5.2|
2,1,3.7|
];
constraint_x9_x7=[
0,1,5.4|
0,2,8.8|
1,0,9.9|
1,2,5.7|
2,0,0.36|
2,1,3.4|
];
constraint_x10_x2=[
0,1,5.6|
0,2,3.4|
1,0,1.7|
1,2,9.2|
2,0,4.5|
2,1,0.32|
];
constraint_x10_x4=[
0,1,6.3|
0,2,8.7|
1,0,5|
1,2,7.2|
2,0,5.7|
2,1,7|
];
constraint_x10_x5=[
0,1,4.5|
0,2,1.9|
1,0,2.8|
1,2,7|
2,0,9.7|
2,1,3.6|
];
constraint_x10_x7=[
0,1,3|
0,2,4.9|
1,0,1.3|
1,2,3|
2,0,6.6|
2,1,6.4|
];
constraint_x10_x8=[
0,1,0.3|
0,2,4|
1,0,6.7|
1,2,9.9|
2,0,6.3|
2,1,2.9|
];
constraint_x10_x9=[
0,1,1.3|
0,2,0.92|
1,0,7.1|
1,2,1.3|
2,0,9.2|
2,1,1.9|
];
constraint_x11_x1=[
0,1,4.7|
0,2,3.3|
1,0,4.6|
1,2,5.1|
2,0,6.5|
2,1,9.3|
];
constraint_x11_x2=[
0,1,8.5|
0,2,7.7|
1,0,3.1|
1,2,0.15|
2,0,4.7|
2,1,2.6|
];
constraint_x11_x3=[
0,1,2.7|
0,2,9.3|
1,0,8.9|
1,2,0.57|
2,0,6.6|
2,1,7.2|
];
constraint_x11_x5=[
0,1,4.7|
0,2,0.38|
1,0,1.1|
1,2,8.5|
2,0,3.6|
2,1,5.4|
];
constraint_x11_x6=[
0,1,6.6|
0,2,7.7|
1,0,7.4|
1,2,5.5|
2,0,0.36|
2,1,9.1|
];
constraint_x11_x7=[
0,1,6.8|
0,2,3.2|
1,0,4|
1,2,2.6|
2,0,0.68|
2,1,7.7|
];
constraint_x11_x8=[
0,1,2.3|
0,2,1.7|
1,0,1.8|
1,2,3.6|
2,0,1|
2,1,2.8|
];
constraint_x12_x1=[
0,1,2.7|
0,2,8.8|
1,0,8.8|
1,2,9.6|
2,0,6.8|
2,1,6.2|
];
constraint_x12_x5=[
0,1,9.4|
0,2,7.4|
1,0,4.5|
1,2,10|
2,0,7.8|
2,1,5.2|
];
constraint_x12_x7=[
0,1,5.3|
0,2,6.1|
1,0,4.5|
1,2,4.2|
2,0,2.1|
2,1,7.5|
];
constraint_x12_x10=[
0,1,9.9|
0,2,8.6|
1,0,6.3|
1,2,6.6|
2,0,4|
2,1,8.5|
];
constraint_x13_x3=[
0,1,1.9|
0,2,2.3|
1,0,0.8|
1,2,3.1|
2,0,7.1|
2,1,2.1|
];
constraint_x13_x4=[
0,1,0.42|
0,2,7.3|
1,0,6.8|
1,2,0.18|
2,0,5|
2,1,5.1|
];
constraint_x13_x6=[
0,1,4.8|
0,2,4|
1,0,4|
1,2,3|
2,0,0.94|
2,1,4.3|
];
constraint_x13_x7=[
0,1,1.6|
0,2,6.5|
1,0,0.73|
1,2,7.9|
2,0,1.1|
2,1,0.17|
];
constraint_x13_x8=[
0,1,0.35|
0,2,8.4|
1,0,8.4|
1,2,4.4|
2,0,1.1|
2,1,7.3|
];
constraint_x13_x12=[
0,1,2.3|
0,2,0.58|
1,0,8.3|
1,2,6.2|
2,0,3.9|
2,1,6.5|
];
constraint_x14_x2=[
0,1,9.3|
0,2,0.97|
1,0,0.61|
1,2,8.3|
2,0,7.5|
2,1,7.8|
];
constraint_x14_x3=[
0,1,2.7|
0,2,1.3|
1,0,1.3|
1,2,5.2|
2,0,10|
2,1,3.1|
];
constraint_x14_x4=[
0,1,5|
0,2,4.3|
1,0,6.1|
1,2,1.2|
2,0,5|
2,1,0.91|
];
constraint_x14_x5=[
0,1,1.9|
0,2,0.96|
1,0,0.77|
1,2,3.6|
2,0,1.5|
2,1,0.49|
];
constraint_x14_x6=[
0,1,6.3|
0,2,9.5|
1,0,2.3|
1,2,0.89|
2,0,3|
2,1,4.9|
];
constraint_x14_x8=[
0,1,3.6|
0,2,2.4|
1,0,1.1|
1,2,6.2|
2,0,5.3|
2,1,0.9|
];
constraint_x14_x9=[
0,1,5.7|
0,2,2.4|
1,0,6.9|
1,2,8.8|
2,0,8.4|
2,1,7.8|
];
constraint_x15_x2=[
0,1,1.2|
0,2,2.8|
1,0,2.9|
1,2,2.9|
2,0,1.4|
2,1,0.16|
];
constraint_x15_x8=[
0,1,7.7|
0,2,6.1|
1,0,9.4|
1,2,7.4|
2,0,2.4|
2,1,5.2|
];
constraint_x15_x9=[
0,1,1.1|
0,2,8.9|
1,0,2.6|
1,2,4.2|
2,0,3.1|
2,1,2.7|
];
constraint_x15_x10=[
0,1,9.9|
0,2,8.7|
1,0,6.3|
1,2,4.2|
2,0,7.8|
2,1,4|
];
constraint_x15_x12=[
0,1,2.3|
0,2,7|
1,0,4.8|
1,2,6.5|
2,0,8.7|
2,1,7.9|
];
constraint_x15_x14=[
0,1,1.9|
0,2,0.79|
1,0,0.74|
1,2,7|
2,0,3|
2,1,5|
];
constraint_x1_y1=[
0,0,0.54|
0,1,3|
0,2,6.7|
1,0,8|
1,1,6.7|
1,2,0.15|
2,0,9.9|
2,1,9.7|
2,2,9.7|
];
constraint_x2_y2=[
0,0,3.4|
0,1,0.29|
0,2,8.6|
1,0,2|
1,1,7.8|
1,2,10|
2,0,7.5|
2,1,5.7|
2,2,2.3|
];
constraint_x3_y3=[
0,0,5|
0,1,8.7|
0,2,5.4|
1,0,7.7|
1,1,8.4|
1,2,1.8|
2,0,1.7|
2,1,7.6|
2,2,9.1|
];
initial_distribution_y1=[0.73,0.038,0.23];
initial_distribution_y2=[0.45,0.27,0.28];
initial_distribution_y3=[0.47,0.41,0.12];
transition_y1=[
0.17,0.65,0.19|
0.17,0.4,0.43|
0.6,0.09,0.31|
];
transition_y2=[
0.17,0.54,0.29|
0.31,0.35,0.34|
0.47,0.16,0.37|
];
transition_y3=[
0.45,0.044,0.5|
0.19,0.14,0.67|
0.74,0.061,0.2|
];
